14643
1 0 1 0 1 1 1 0 1 0 0 1 0 0 1 1 1 1 0 0 1 1 0 0 1 0 1 0 1 0 
20 11 20 2 6 5 2 24 17 17 26 16 20 20 17 14 14 17 5 11 2 4 21 17 24 20 17 24 5 24 21 11 6 11 20 20 24 15 4 14 17 14 15 6 24 14 4 20 11 14 21 14 14 5 20 20 17 4 17 14 0 5 8 11 11 11 24 0 26 24 20 6 11 17 24 8 26 20 17 24 20 17 20 17 17 17 17 4 20 5 2 24 17 11 17 24 2 4 21 6 16 17 14 11 2 5 4 11 14 28 14 17 2 11 11 4 24 24 24 24 5 16 11 20 16 4 5 24 17 21 0 17 24 5 20 14 4 5 8 17 0 20 20 14 8 5 11 5 2 5 